
Gurobi 13.0.2 (win64) logging started Thu Jul 23 06:10:49 2026

Set parameter LogFile to value "E:\codes\ExactEBRP\results\gf_cplex_equivalent_gurobi_replica_round28\runs\stage2__tight_T_seed4101__c3_replica__300s\external\native_logs\R.0.1.0.1.0.0.0.1.1.0_terminal_mip.gurobi.log"
Gurobi Optimizer version 13.0.2 build v13.0.2rc1 (win64 - Windows 10.0 (19045.2))

CPU model: 12th Gen Intel(R) Core(TM) i7-12700KF, instruction set [SSE2|AVX|AVX2]
Thread count: 12 physical cores, 20 logical processors, using up to 1 threads

Non-default parameters:
TimeLimit  9.0205851599999988e+01
MIPGap  0
MIPGapAbs  0
LogToConsole  0
Threads  1

Optimize a model with 11897 rows, 3372 columns and 67355 nonzeros (Min)
Model fingerprint: 0x076fda36
Model has 21 linear objective coefficients
Variable types: 1683 continuous, 1689 integer (1489 binary)
Coefficient statistics:
  Matrix range     [7e-03, 2e+04]
  Objective range  [7e-03, 1e+00]
  Bounds range     [2e-01, 9e+02]
  RHS range        [2e-01, 5e+04]

Presolve removed 1614 rows and 96 columns
Presolve time: 0.21s
Presolved: 10283 rows, 3276 columns, 68705 nonzeros
Variable types: 1628 continuous, 1648 integer (1466 binary)

Root relaxation: objective 4.161989e-01, 2698 iterations, 0.12 seconds (0.31 work units)

    Nodes    |    Current Node    |     Objective Bounds      |     Work
 Expl Unexpl |  Obj  Depth IntInf | Incumbent    BestBd   Gap | It/Node Time

     0     0    0.41620    0  124          -    0.41620      -     -    0s
     0     0    0.43197    0  142          -    0.43197      -     -    0s
     0     0    0.46210    0  231          -    0.46210      -     -    0s
     0     0    0.46574    0  251          -    0.46574      -     -    1s
     0     0    0.48090    0  290          -    0.48090      -     -    1s
     0     0    0.48180    0  305          -    0.48180      -     -    1s
     0     0    0.50469    0  284          -    0.50469      -     -    2s
     0     0    0.50654    0  302          -    0.50654      -     -    2s
     0     0    0.53550    0  310          -    0.53550      -     -    3s
     0     0    0.54141    0  319          -    0.54141      -     -    3s
     0     0 infeasible    0               - infeasible      -     -    4s

Cutting planes:
  Learned: 10
  Gomory: 1
  Cover: 33
  Implied bound: 122
  Clique: 22
  MIR: 311
  StrongCG: 5
  Flow cover: 74
  Zero half: 3
  Network: 16
  RLT: 13
  Relax-and-lift: 91
  BQP: 3

Explored 1 nodes (13859 simplex iterations) in 4.07 seconds (6.64 work units)
Thread count was 1 (of 20 available processors)

Solution count 0

Model is infeasible
Best objective -, best bound -, gap -

User-callback calls 1959, time in user-callback 0.00 sec
